c FILE: i080-143

c SOURCE: From steinlib

c DESCRIPTION: Steinlib instance with 80 nodes and 632 edges.

p edge 80 632
e 1 10
e 1 15
e 1 19
e 1 21
e 1 23
e 1 24
e 1 29
e 1 31
e 1 32
e 1 34
e 1 36
e 1 37
e 1 40
e 1 43
e 1 48
e 1 49
e 1 52
e 1 55
e 1 60
e 1 63
e 1 66
e 1 67
e 1 72
e 1 73
e 1 79
e 1 80
e 2 6
e 2 10
e 2 15
e 2 24
e 2 28
e 2 30
e 2 31
e 2 32
e 2 42
e 2 47
e 2 52
e 2 53
e 2 58
e 2 61
e 2 65
e 2 68
e 2 69
e 2 71
e 2 80
e 3 9
e 3 13
e 3 15
e 3 19
e 3 26
e 3 40
e 3 41
e 3 57
e 4 7
e 4 11
e 4 24
e 4 28
e 4 30
e 4 32
e 4 37
e 4 51
e 4 60
e 4 66
e 4 70
e 4 72
e 4 73
e 4 78
e 5 7
e 5 10
e 5 16
e 5 22
e 5 26
e 5 32
e 5 34
e 5 37
e 5 46
e 5 52
e 5 57
e 5 61
e 5 65
e 5 68
e 5 69
e 6 11
e 6 19
e 6 27
e 6 37
e 6 39
e 6 44
e 6 45
e 6 57
e 6 64
e 6 69
e 6 77
e 6 78
e 7 8
e 7 17
e 7 18
e 7 23
e 7 26
e 7 31
e 7 32
e 7 34
e 7 45
e 7 46
e 7 52
e 7 69
e 7 70
e 7 74
e 7 75
e 7 76
e 7 77
e 7 78
e 7 80
e 8 10
e 8 19
e 8 20
e 8 22
e 8 29
e 8 35
e 8 36
e 8 38
e 8 39
e 8 42
e 8 47
e 8 51
e 8 52
e 8 62
e 8 63
e 8 69
e 8 72
e 8 78
e 8 79
e 9 12
e 9 13
e 9 22
e 9 25
e 9 26
e 9 28
e 9 30
e 9 32
e 9 37
e 9 38
e 9 43
e 9 44
e 9 49
e 9 51
e 9 56
e 9 63
e 9 67
e 9 75
e 9 77
e 10 14
e 10 19
e 10 27
e 10 47
e 10 49
e 10 50
e 10 51
e 10 53
e 10 55
e 10 65
e 10 68
e 10 69
e 11 16
e 11 31
e 11 35
e 11 56
e 11 57
e 11 63
e 11 66
e 11 69
e 11 76
e 11 77
e 11 79
e 12 18
e 12 20
e 12 32
e 12 38
e 12 46
e 12 47
e 12 48
e 12 55
e 12 63
e 12 64
e 12 74
e 13 14
e 13 17
e 13 18
e 13 23
e 13 25
e 13 30
e 13 33
e 13 42
e 13 52
e 13 54
e 13 56
e 13 57
e 13 65
e 13 72
e 13 74
e 14 18
e 14 29
e 14 30
e 14 33
e 14 42
e 14 44
e 14 45
e 14 63
e 14 64
e 14 67
e 14 69
e 14 74
e 14 77
e 14 78
e 14 79
e 15 20
e 15 25
e 15 29
e 15 36
e 15 42
e 15 43
e 15 47
e 15 62
e 15 70
e 15 72
e 16 27
e 16 29
e 16 37
e 16 45
e 16 46
e 16 48
e 16 60
e 16 62
e 16 63
e 16 64
e 17 19
e 17 27
e 17 31
e 17 50
e 17 55
e 17 56
e 17 68
e 17 72
e 17 75
e 17 78
e 17 80
e 18 22
e 18 27
e 18 33
e 18 35
e 18 59
e 18 65
e 18 67
e 18 71
e 19 21
e 19 24
e 19 26
e 19 35
e 19 40
e 19 45
e 19 49
e 19 55
e 19 59
e 19 61
e 19 62
e 19 67
e 19 70
e 19 74
e 19 79
e 20 35
e 20 38
e 20 46
e 20 49
e 20 55
e 20 63
e 20 71
e 20 73
e 20 74
e 21 26
e 21 38
e 21 40
e 21 48
e 21 54
e 21 55
e 21 59
e 21 61
e 21 63
e 21 72
e 21 75
e 21 79
e 22 35
e 22 42
e 22 44
e 22 56
e 22 62
e 22 72
e 22 77
e 23 28
e 23 30
e 23 33
e 23 35
e 23 38
e 23 42
e 23 46
e 23 47
e 23 53
e 23 55
e 23 56
e 23 62
e 23 67
e 23 68
e 23 70
e 23 76
e 23 77
e 24 30
e 24 34
e 24 36
e 24 38
e 24 48
e 24 57
e 24 61
e 24 65
e 24 67
e 24 78
e 25 31
e 25 35
e 25 36
e 25 48
e 25 50
e 25 53
e 25 64
e 25 75
e 25 77
e 25 79
e 26 27
e 26 32
e 26 39
e 26 47
e 26 48
e 26 54
e 26 67
e 26 68
e 26 69
e 26 70
e 26 79
e 27 32
e 27 37
e 27 41
e 27 45
e 27 49
e 27 50
e 27 51
e 27 52
e 27 54
e 27 55
e 27 62
e 27 64
e 27 67
e 27 70
e 27 72
e 27 73
e 27 76
e 27 77
e 28 38
e 28 42
e 28 53
e 28 60
e 28 69
e 28 75
e 28 78
e 28 80
e 29 33
e 29 41
e 29 47
e 29 48
e 29 49
e 29 56
e 29 60
e 29 79
e 30 34
e 30 35
e 30 42
e 30 44
e 30 45
e 30 47
e 30 49
e 30 54
e 30 65
e 30 69
e 30 72
e 30 74
e 30 77
e 31 42
e 31 45
e 31 49
e 31 50
e 31 52
e 31 53
e 31 59
e 31 60
e 31 67
e 31 79
e 32 39
e 32 45
e 32 46
e 32 51
e 32 54
e 32 56
e 32 57
e 32 64
e 32 66
e 32 67
e 32 68
e 32 71
e 32 78
e 32 79
e 33 34
e 33 37
e 33 41
e 33 42
e 33 46
e 33 48
e 33 49
e 33 52
e 33 57
e 33 73
e 33 75
e 33 76
e 33 79
e 34 40
e 34 42
e 34 44
e 34 47
e 34 54
e 34 65
e 34 67
e 34 79
e 34 80
e 35 37
e 35 54
e 35 55
e 35 60
e 35 62
e 35 63
e 35 66
e 35 68
e 35 73
e 35 76
e 35 78
e 36 37
e 36 42
e 36 51
e 36 53
e 36 60
e 36 63
e 36 70
e 36 73
e 36 79
e 37 39
e 37 69
e 37 71
e 37 73
e 37 74
e 37 80
e 38 51
e 38 54
e 38 55
e 38 57
e 38 61
e 38 62
e 38 63
e 38 74
e 38 75
e 39 42
e 39 48
e 39 51
e 39 57
e 40 42
e 40 54
e 40 60
e 40 61
e 40 64
e 40 65
e 40 70
e 40 76
e 40 77
e 40 80
e 41 51
e 41 53
e 41 55
e 41 65
e 41 66
e 41 75
e 41 79
e 42 44
e 42 49
e 42 55
e 42 60
e 42 65
e 42 68
e 43 47
e 43 49
e 43 51
e 43 54
e 43 56
e 43 58
e 43 60
e 43 70
e 43 73
e 43 75
e 44 49
e 44 62
e 44 67
e 44 72
e 44 73
e 44 80
e 45 51
e 45 55
e 45 65
e 45 68
e 45 73
e 46 51
e 46 52
e 46 65
e 46 75
e 46 76
e 46 77
e 47 49
e 47 53
e 47 55
e 47 59
e 47 60
e 47 65
e 48 49
e 48 54
e 48 57
e 48 70
e 48 71
e 49 63
e 49 71
e 49 73
e 49 75
e 49 79
e 49 80
e 50 53
e 50 55
e 50 62
e 50 69
e 51 52
e 51 53
e 51 54
e 51 59
e 51 60
e 51 69
e 51 72
e 51 77
e 52 56
e 52 58
e 52 68
e 52 76
e 52 78
e 52 79
e 53 64
e 53 69
e 53 71
e 53 72
e 53 79
e 54 58
e 54 62
e 54 71
e 54 72
e 55 57
e 55 65
e 55 66
e 55 67
e 55 70
e 55 75
e 56 73
e 57 59
e 57 60
e 57 66
e 57 67
e 57 68
e 57 72
e 58 60
e 58 61
e 58 66
e 58 71
e 59 63
e 59 75
e 60 61
e 60 71
e 60 72
e 60 75
e 61 63
e 61 65
e 61 66
e 61 69
e 61 74
e 61 76
e 62 67
e 62 72
e 62 76
e 63 72
e 63 73
e 63 77
e 64 73
e 64 74
e 64 79
e 65 76
e 66 73
e 66 76
e 66 79
e 67 75
e 67 78
e 68 75
e 69 71
e 69 75
e 69 78
e 70 75
e 70 76
e 70 77
e 70 80
e 71 79
e 72 73
e 72 77
e 73 74
e 73 76
e 73 79
e 74 76
e 74 79
e 75 79
